sat
(:added-eqs                   1008
 :arith-eq-adapter            613
 :arith-bound-propagations-lp 99
 :arith-branch                71
 :arith-conflicts             36
 :arith-cube-calls            17
 :arith-dio-calls             5
 :arith-diseq                 354
 :arith-fixed-eqs             17
 :arith-gcd-calls             72
 :arith-lower                 2012
 :arith-make-feasible         923
 :arith-max-columns           836
 :arith-max-rows              301
 :arith-patches               72
 :arith-patches-success       1
 :arith-upper                 1558
 :binary-propagations         975
 :conflicts                   58
 :decisions                   694
 :del-clause                  366
 :final-checks                72
 :max-memory                  24.67
 :memory                      20.35
 :mk-bool-var                 3274
 :mk-clause                   572
 :mk-clause-binary            398
 :num-allocs                  27555700
 :num-checks                  1
 :propagations                1132
 :rlimit-count                305642
 :solve-eqs-elim-vars         426
 :solve-eqs-steps             3065
 :time                        0.15
 :total-time                  0.22)
